50 9684

198
216
440
182
479
471
237
375
347
302
249
406
471
418
112
84
280
164
221
12
47
127
345
163
191
236
183
289
319
40
327
446
319
351
144
468
321
125
222
373
60
92
172
333
26
21
248
249
82
123
